NAME : ct_6_n_3_k10_t_60
COMMENT : (ct_6_n_3_k10_t_60, Min no of trucks: 3, Optimal value: 527.5973838033867, Split: No)
TYPE : SDVRP
DIMENSION : 7
EDGE_WEIGHT_TYPE : EUC_2D
CAPACITY : 10
NODE_COORD_SECTION
1 100 100
2 159 30
3 34 131
4 90 45
5 122 92
6 42 42
7 124 142
DEMAND_SECTION
1 0
2 3.0
3 3.8
4 2.3
5 2.0
6 2.8
7 4.1
DEPOT_SECTION
 1
EOF